NAME : sample8
TYPE : TSP
DIMENSION : 20
EDGE_WEIGHT_TYPE : EUC_2D
NODE_COORD_SECTION
	0	-5,15	-14,99
	1	19,43	-18,35
	2	-16,38	4,54
	3	4,53	0,51
	4	-19,72	-15,88
	5	-15,15	-0,77
	6	-17,09	-4,58
	7	-9,64	13,58
	8	-7,69	-9,42
	9	-14,66	-13,44
	10	-17,4	14
	11	16,65	1,19
	12	-19,46	9,22
	13	-5,76	8,35
	14	9,38	12,55
	15	2,71	14,04
	16	-10,4	0,77
	17	12,73	4,37
	18	7,93	15,64
	19	-7,69	-13,32
EOF